<number of tasks>
32

<cycle time>
2357

<task times>
1 458
2 276
3 520
4 1400
5 352
6 196
7 214
8 456
9 646
10 512
11 408
12 262
13 544
14 202
15 458
16 694
17 616
18 678
19 328
20 324
21 100
22 352
23 544
24 500
25 382
26 858
27 388
28 352
29 428
30 238
31 258
32 196

<precedence relations>
1,5
2,6
3,9
4,15
5,6
6,7
6,8
6,9
7,21
8,21
9,10
9,11
10,16
11,12
12,13
13,14
13,15
14,16
14,17
15,17
16,18
17,19
18,21
19,20
20,21
21,22
21,23
21,24
22,25
23,32
24,32
25,26
26,27
27,28
28,29
29,30
30,31
31,32

<setup times forward>
1,2:89
1,3:89
2,1:89
2,4:89
2,5:89
3,1:89
3,4:89
3,5:89
3,7:58
3,8:123
3,9:123
4,2:89
4,3:89
4,6:89
4,7:31
4,8:34
4,9:34
4,10:34
4,11:34
4,12:34
4,13:31
4,14:31
4,15:21
4,16:31
4,18:31
5,2:89
5,3:89
5,6:89
6,4:89
6,7:58
6,8:123
6,9:123
7,3:58
7,4:31
7,8:65
7,9:65
7,10:65
7,11:65
7,12:65
7,15:10
7,17:10
7,19:10
7,20:10
7,21:10
8,3:123
8,4:34
8,7:65
8,13:65
8,14:65
8,15:55
8,16:65
8,17:55
8,18:65
8,19:55
8,20:55
8,21:55
9,4:34
9,7:65
10,4:34
10,7:65
10,13:65
10,14:65
10,15:55
10,16:65
10,17:55
10,19:55
10,20:55
11,4:34
11,7:65
12,4:34
12,7:65
12,13:65
13,4:31
13,8:65
13,10:65
13,15:10
14,4:31
14,8:65
14,10:65
14,15:10
14,17:10
15,7:10
15,8:55
15,10:55
15,14:10
15,16:10
15,18:10
16,4:31
16,8:65
16,15:10
16,17:10
16,19:10
16,20:10
17,7:10
17,8:55
17,10:55
17,16:10
17,18:10
18,4:31
18,8:65
18,15:10
18,17:10
18,19:10
18,20:10
18,21:10
19,7:10
19,8:55
19,10:55
19,16:10
19,18:10
20,7:10
20,8:55
20,10:55
20,16:10
20,18:10
21,23:71
21,24:71
22,23:71
22,24:71
22,25:71
23,22:71
23,27:46
23,28:46
23,29:46
23,30:46
23,31:46
23,32:46
24,22:71
24,27:46
24,28:46
24,29:46
24,30:46
24,31:46
24,32:46
26,27:46
27,23:46
27,24:46
28,23:46
28,24:46
29,23:46
29,24:46
30,23:46
30,24:46
31,23:46
31,24:46

<setup times backward>
1,1:25
1,4:25
2,1:114
2,2:25
2,3:25
2,4:114
2,5:114
3,1:114
3,2:25
3,3:25
3,4:114
3,5:114
3,6:25
3,7:83
3,8:148
4,1:25
4,4:25
4,5:25
4,8:59
4,9:59
4,10:59
4,11:59
4,12:59
5,1:25
5,4:25
5,5:25
6,1:114
6,2:25
6,3:25
6,4:114
6,5:114
6,6:25
7,1:56
7,4:56
7,5:56
7,7:25
7,8:90
7,9:90
7,10:90
7,11:90
7,12:90
7,13:25
7,14:25
7,15:35
7,16:25
7,17:35
7,18:25
7,19:35
7,20:35
8,8:25
8,9:25
8,10:25
8,11:25
8,12:25
9,8:25
9,9:25
10,8:25
10,9:25
10,10:25
10,11:25
10,12:25
11,8:25
11,9:25
11,10:25
11,11:25
12,8:25
12,9:25
12,10:25
12,11:25
12,12:25
13,1:56
13,4:56
13,5:56
13,7:25
13,8:90
13,9:90
13,10:90
13,11:90
13,12:90
13,13:25
14,1:56
14,4:56
14,5:56
14,7:25
14,8:90
14,9:90
14,10:90
14,11:90
14,12:90
14,13:25
14,14:25
14,15:35
15,1:46
15,4:46
15,5:46
15,7:15
15,8:80
15,9:80
15,10:80
15,11:80
15,12:80
15,13:15
15,14:15
15,15:25
15,16:15
15,18:15
16,1:56
16,4:56
16,5:56
16,7:25
16,8:90
16,9:90
16,10:90
16,11:90
16,12:90
16,13:25
16,14:25
16,15:35
16,16:25
16,17:35
16,19:35
16,20:35
17,1:46
17,4:46
17,5:46
17,7:15
17,8:80
17,9:80
17,10:80
17,11:80
17,12:80
17,13:15
17,14:15
17,15:25
17,16:15
17,17:25
17,18:15
18,1:56
18,4:56
18,5:56
18,7:25
18,8:90
18,9:90
18,10:90
18,11:90
18,12:90
18,13:25
18,14:25
18,15:35
18,16:25
18,17:35
18,18:25
18,19:35
18,20:35
19,1:46
19,4:46
19,5:46
19,7:15
19,8:80
19,9:80
19,10:80
19,11:80
19,12:80
19,13:15
19,14:15
19,15:25
19,16:15
19,17:25
19,18:15
19,19:25
20,1:46
20,4:46
20,5:46
20,7:15
20,8:80
20,9:80
20,10:80
20,11:80
20,12:80
20,13:15
20,14:15
20,15:25
20,16:15
20,17:25
20,18:15
20,19:25
20,20:25
21,1:46
21,4:46
21,5:46
21,7:15
21,8:80
21,9:80
21,10:80
21,11:80
21,12:80
21,13:15
21,14:15
21,15:25
21,16:15
21,17:25
21,18:15
21,19:25
21,20:25
21,21:25
22,1:46
22,4:46
22,5:46
22,7:15
22,8:80
22,9:80
22,10:80
22,11:80
22,12:80
22,13:15
22,14:15
22,15:25
22,16:15
22,17:25
22,18:15
22,19:25
22,20:25
22,21:25
22,22:25
22,23:96
22,24:96
23,8:9
23,9:9
23,10:9
23,11:9
23,12:9
23,23:25
23,24:25
23,25:25
23,26:25
24,8:9
24,9:9
24,10:9
24,11:9
24,12:9
24,23:25
24,24:25
24,25:25
24,26:25
25,8:9
25,9:9
25,10:9
25,11:9
25,12:9
25,23:25
25,24:25
25,25:25
26,8:9
26,9:9
26,10:9
26,11:9
26,12:9
26,23:25
26,24:25
26,25:25
26,26:25
27,1:21
27,4:21
27,5:21
27,8:55
27,9:55
27,10:55
27,11:55
27,12:55
27,23:71
27,24:71
27,25:71
27,26:71
27,27:25
28,1:21
28,4:21
28,5:21
28,8:55
28,9:55
28,10:55
28,11:55
28,12:55
28,23:71
28,24:71
28,25:71
28,26:71
28,27:25
28,28:25
29,1:21
29,4:21
29,5:21
29,8:55
29,9:55
29,10:55
29,11:55
29,12:55
29,23:71
29,24:71
29,25:71
29,26:71
29,27:25
29,28:25
29,29:25
30,1:21
30,4:21
30,5:21
30,8:55
30,9:55
30,10:55
30,11:55
30,12:55
30,23:71
30,24:71
30,25:71
30,26:71
30,27:25
30,28:25
30,29:25
30,30:25
31,1:21
31,4:21
31,5:21
31,8:55
31,9:55
31,10:55
31,11:55
31,12:55
31,23:71
31,24:71
31,25:71
31,26:71
31,27:25
31,28:25
31,29:25
31,30:25
31,31:25
32,1:21
32,4:21
32,5:21
32,8:55
32,9:55
32,10:55
32,11:55
32,12:55
32,23:71
32,24:71
32,25:71
32,26:71
32,27:25
32,28:25
32,29:25
32,30:25
32,31:25
32,32:25

<end>

<optimal SALBP-1 value>
7


<rand seed>
467321153

<Lower Bounds>
Lm1=6
Lms1=6
Lm2=1
Lm3=1
Lm4=7
Best=7

<Optimal Stations (Iterations: 10)>
7
